language Essence 1.3

letting blksize_delta be
        function(1 --> 10, 2 --> 10, 3 --> 10, 4 --> 10, 5 --> 10, 6 --> 10, 7 --> 10, 8 --> 10, 9 --> 10, 10 --> 10,
                 11 --> 10, 12 --> 10, 13 --> 10, 14 --> 10, 15 --> 10, 16 --> 10, 17 --> 10, 18 --> 10, 19 --> 10,
                 20 --> 10, 21 --> 10, 22 --> 10, 23 --> 10, 24 --> 10, 25 --> 10, 26 --> 10, 27 --> 10, 28 --> 10,
                 29 --> 10, 30 --> 10, 31 --> 10, 32 --> 10, 33 --> 10, 34 --> 10, 35 --> 10, 36 --> 10, 37 --> 10,
                 38 --> 10, 39 --> 10, 40 --> 10, 41 --> 10, 42 --> 10, 43 --> 10, 44 --> 10, 45 --> 10)
letting maxcars be
        function(1 --> 8, 2 --> 8, 3 --> 8, 4 --> 8, 5 --> 8, 6 --> 8, 7 --> 8, 8 --> 8, 9 --> 8, 10 --> 8, 11 --> 8,
                 12 --> 8, 13 --> 8, 14 --> 8, 15 --> 8, 16 --> 10, 17 --> 8, 18 --> 8, 19 --> 8, 20 --> 8, 21 --> 8,
                 22 --> 8, 23 --> 8, 24 --> 9, 25 --> 8, 26 --> 8, 27 --> 9, 28 --> 8, 29 --> 8, 30 --> 8, 31 --> 8,
                 32 --> 8, 33 --> 9, 34 --> 8, 35 --> 8, 36 --> 8, 37 --> 8, 38 --> 10, 39 --> 8, 40 --> 8, 41 --> 9,
                 42 --> 8, 43 --> 10, 44 --> 8, 45 --> 8)
letting n_cars be 155
letting n_classes be 19
letting n_options be 45
letting quantity be
        function(1 --> 8, 2 --> 8, 3 --> 8, 4 --> 8, 5 --> 8, 6 --> 8, 7 --> 8, 8 --> 8, 9 --> 8, 10 --> 8, 11 --> 8,
                 12 --> 8, 13 --> 8, 14 --> 10, 15 --> 8, 16 --> 8, 17 --> 8, 18 --> 8, 19 --> 9)
letting usage be
        relation((1, 24), (1, 31), (1, 43), (2, 38), (3, 6), (3, 22), (3, 23), (3, 27), (3, 34), (3, 39), (4, 6),
                 (4, 13), (4, 16), (4, 19), (4, 28), (4, 35), (4, 38), (4, 39), (4, 40), (5, 45), (6, 5), (6, 6),
                 (6, 19), (6, 25), (6, 26), (6, 31), (6, 39), (7, 8), (7, 11), (7, 30), (7, 42), (8, 35), (9, 17),
                 (9, 20), (9, 30), (9, 35), (9, 37), (10, 29), (10, 33), (10, 40), (10, 44), (11, 1), (11, 5), (11, 26),
                 (11, 31), (11, 38), (12, 3), (12, 11), (12, 18), (12, 26), (12, 32), (12, 35), (13, 4), (13, 12),
                 (13, 26), (13, 40), (14, 26), (15, 1), (15, 9), (15, 10), (15, 14), (15, 15), (15, 17), (15, 21),
                 (15, 22), (15, 23), (15, 24), (15, 29), (15, 36), (15, 37), (15, 41), (16, 1), (16, 4), (16, 29),
                 (16, 33), (16, 34), (16, 44), (17, 7), (17, 19), (17, 25), (17, 26), (17, 35), (18, 7), (18, 8),
                 (18, 18), (18, 20), (18, 25), (18, 26), (18, 35), (19, 2), (19, 26), (19, 28), (19, 29), (19, 31),
                 (19, 33), (19, 45))
$ Visualisation for usage
$  1 24
$  1 31
$  1 43
$  2 38
$  3  6
$  3 22
$  3 23
$  3 27
$  3 34
$  3 39
$  4  6
$  4 13
$  4 16
$  4 19
$  4 28
$  4 35
$  4 38
$  4 39
$  4 40
$  5 45
$  6  5
$  6  6
$  6 19
$  6 25
$  6 26
$  6 31
$  6 39
$  7  8
$  7 11
$  7 30
$  7 42
$  8 35
$  9 17
$  9 20
$  9 30
$  9 35
$  9 37
$ 10 29
$ 10 33
$ 10 40
$ 10 44
$ 11  1
$ 11  5
$ 11 26
$ 11 31
$ 11 38
$ 12  3
$ 12 11
$ 12 18
$ 12 26
$ 12 32
$ 12 35
$ 13  4
$ 13 12
$ 13 26
$ 13 40
$ 14 26
$ 15  1
$ 15  9
$ 15 10
$ 15 14
$ 15 15
$ 15 17
$ 15 21
$ 15 22
$ 15 23
$ 15 24
$ 15 29
$ 15 36
$ 15 37
$ 15 41
$ 16  1
$ 16  4
$ 16 29
$ 16 33
$ 16 34
$ 16 44
$ 17  7
$ 17 19
$ 17 25
$ 17 26
$ 17 35
$ 18  7
$ 18  8
$ 18 18
$ 18 20
$ 18 25
$ 18 26
$ 18 35
$ 19  2
$ 19 26
$ 19 28
$ 19 29
$ 19 31
$ 19 33
$ 19 45

